0 0 0 0
0 1 0 1
0 2 0 0
0 3 2 0
0 4 2 5
0 5 0 3
0 6 2 3
0 7 0 4
0 8 2 6
0 9 0 10
0 10 2 6
0 11 0 15
0 12 2 9
0 13 2 12
0 14 0 10
0 15 2 11
0 16 2 20
0 17 2 29
0 18 2 22
0 19 0 20
0 20 1 29
0 21 2 19
0 22 2 21
0 23 1 5
0 24 0 35
0 25 1 36
0 26 0 29
0 27 1 36
0 28 2 32
0 29 2 31
0 30 0 41
0 31 0 43
